% Data file students-to-courses
n_courses = 4;
capacity = [0, 4, 4, 20];
c_name = ["a", "b", "c", "d"];

n_students = 19;
s_name = ["A", "B", "C", "E", "F", "G", "H", "I", "J", "K", "L", "M", "N", "O", "P", "Q", "R", "S", "T"];

n_wish = 3;

% Die Kurswünsche der Schüler, 1, 2, und dritte Wahl
% Die Kurse sind mit ihren ids angegeben, mit 1 begonnen
% (Kurs 1 ist der "a" Kurs)

wish = [| 1, 2, 3| 4, 2, 1| 1, 3, 4| 3, 4, 1| 4, 3, 2| 2, 4, 1| 1, 2, 3| 4, 2, 1| 1, 3, 4| 3, 4, 1| 4, 3, 2| 2, 4, 1| 2, 4, 1| 1, 2, 3| 4, 2, 1| 1, 3, 4| 3, 4, 1| 4, 3, 2| 2, 4, 1|];